NAME : 0Farmland.opt.tour
COMMENT : Optimum solution  for 0Farmland   
TYPE : TOUR
DIMENSION : 40
TOUR_SECTION
848.477
3887.6331
5382.079
5908.7030
6575.781
786.6004
8037.825
797.5799
4420.833
3250.523
2823.226
4334.634
1286.132
7294.764
5735.553
2162.987
7672.555
3061.272
1949.235
159.6761
742.7672
603.9376
7208.297
516.5877
3679.013
13679.49
909.73
2719.661
2253.943
8422.408
6861.39
188.443
5419.191
4148.316
4757.465
3932.178
1174.31
2915.505
1025.753
2160.852
-1
EOF
